c "732180.clq"
p edge 120 464
e 1 5
e 1 6
e 1 8
e 1 11
e 1 13
e 1 16
e 1 19
e 1 20
e 1 23
e 1 33
e 1 34
e 1 40
e 1 44
e 1 57
e 2 5
e 2 6
e 2 7
e 2 8
e 2 10
e 2 21
e 2 23
e 2 32
e 2 34
e 2 52
e 2 56
e 2 67
e 2 71
e 2 90
e 3 5
e 3 8
e 3 9
e 3 17
e 3 21
e 3 45
e 3 64
e 3 95
e 4 5
e 4 6
e 4 7
e 4 9
e 4 10
e 4 12
e 4 15
e 4 29
e 4 30
e 4 35
e 4 52
e 4 59
e 4 63
e 4 64
e 4 66
e 4 68
e 4 87
e 4 100
e 5 6
e 5 7
e 5 8
e 5 9
e 5 10
e 5 14
e 5 17
e 5 19
e 5 20
e 5 21
e 5 22
e 5 25
e 5 27
e 5 28
e 5 31
e 5 35
e 5 38
e 5 40
e 5 41
e 5 46
e 5 58
e 5 59
e 5 61
e 5 66
e 5 70
e 5 76
e 5 81
e 5 87
e 5 105
e 5 111
e 5 113
e 5 114
e 6 7
e 6 13
e 6 16
e 6 20
e 6 22
e 6 23
e 6 33
e 6 51
e 6 91
e 6 103
e 7 9
e 7 10
e 7 11
e 7 12
e 7 13
e 7 15
e 7 17
e 7 18
e 7 24
e 7 26
e 7 28
e 7 34
e 7 36
e 7 37
e 7 42
e 7 43
e 7 45
e 7 48
e 7 53
e 7 56
e 7 60
e 7 62
e 7 69
e 7 79
e 7 80
e 7 87
e 7 88
e 7 91
e 7 94
e 7 96
e 7 109
e 7 117
e 7 120
e 8 14
e 8 18
e 8 19
e 8 38
e 8 50
e 8 60
e 8 65
e 8 106
e 8 120
e 9 11
e 9 12
e 9 13
e 9 14
e 9 15
e 9 16
e 9 17
e 9 19
e 9 24
e 9 25
e 9 26
e 9 29
e 9 30
e 9 36
e 9 39
e 9 42
e 9 43
e 9 50
e 9 54
e 9 58
e 9 62
e 9 63
e 9 68
e 9 72
e 9 82
e 9 85
e 9 94
e 9 105
e 9 110
e 9 114
e 10 11
e 10 12
e 10 16
e 10 18
e 10 22
e 10 28
e 10 32
e 10 49
e 10 52
e 10 53
e 10 70
e 10 73
e 10 79
e 10 84
e 10 86
e 10 93
e 10 99
e 11 18
e 11 23
e 11 24
e 11 28
e 11 30
e 11 32
e 11 33
e 11 37
e 11 39
e 11 42
e 11 43
e 11 56
e 11 64
e 11 69
e 11 71
e 11 80
e 11 90
e 11 93
e 11 97
e 11 98
e 11 103
e 12 32
e 12 38
e 12 44
e 12 56
e 12 75
e 12 76
e 12 89
e 12 109
e 13 14
e 13 15
e 13 20
e 13 36
e 13 41
e 13 49
e 13 66
e 13 72
e 13 76
e 13 96
e 13 112
e 14 25
e 14 27
e 14 45
e 14 73
e 14 78
e 14 83
e 14 115
e 15 22
e 15 30
e 15 47
e 15 48
e 15 63
e 15 92
e 15 101
e 16 21
e 16 31
e 16 33
e 16 36
e 16 39
e 16 49
e 16 54
e 16 91
e 16 92
e 16 97
e 16 108
e 17 29
e 17 39
e 17 42
e 17 46
e 17 50
e 17 55
e 17 65
e 17 67
e 17 69
e 17 70
e 17 82
e 17 83
e 17 85
e 17 100
e 17 116
e 17 118
e 18 27
e 18 34
e 18 81
e 18 83
e 18 104
e 18 109
e 19 24
e 19 27
e 19 38
e 19 40
e 19 49
e 19 63
e 19 94
e 19 101
e 19 106
e 19 116
e 20 26
e 20 35
e 20 37
e 20 47
e 20 52
e 20 99
e 20 108
e 20 111
e 21 31
e 21 57
e 21 58
e 21 79
e 21 92
e 22 25
e 22 26
e 22 29
e 22 31
e 22 40
e 22 41
e 22 43
e 22 57
e 22 58
e 22 64
e 22 69
e 22 77
e 22 95
e 22 98
e 22 100
e 22 110
e 23 54
e 23 85
e 24 71
e 24 120
e 25 46
e 25 47
e 25 55
e 25 61
e 25 66
e 25 67
e 25 74
e 25 100
e 25 114
e 26 113
e 27 51
e 27 62
e 27 89
e 27 107
e 27 110
e 28 46
e 28 73
e 28 74
e 28 77
e 28 108
e 28 112
e 28 119
e 29 70
e 29 87
e 29 105
e 30 35
e 30 62
e 30 81
e 30 103
e 31 60
e 31 78
e 31 102
e 31 111
e 32 50
e 34 44
e 34 65
e 34 92
e 34 105
e 34 111
e 34 117
e 35 51
e 35 76
e 36 37
e 36 55
e 36 72
e 36 90
e 36 104
e 37 110
e 38 53
e 38 57
e 38 59
e 38 97
e 38 103
e 38 106
e 39 114
e 39 118
e 40 41
e 40 48
e 40 73
e 40 88
e 40 90
e 40 113
e 41 84
e 41 107
e 42 65
e 42 75
e 43 44
e 43 72
e 43 82
e 43 85
e 43 88
e 43 99
e 43 104
e 43 107
e 44 45
e 44 47
e 44 61
e 44 74
e 44 80
e 45 53
e 45 54
e 45 60
e 45 88
e 45 96
e 46 48
e 46 61
e 46 98
e 46 101
e 47 74
e 47 117
e 47 119
e 48 71
e 49 51
e 49 78
e 50 59
e 50 106
e 52 84
e 53 55
e 53 84
e 53 102
e 56 68
e 56 109
e 56 112
e 56 118
e 57 93
e 57 99
e 58 77
e 59 68
e 59 89
e 59 102
e 60 86
e 62 81
e 62 107
e 64 97
e 64 112
e 65 67
e 66 78
e 67 82
e 68 77
e 68 116
e 69 80
e 70 79
e 70 98
e 71 86
e 71 115
e 72 75
e 72 119
e 73 75
e 73 95
e 73 96
e 74 104
e 75 83
e 77 108
e 77 117
e 79 115
e 80 91
e 82 86
e 84 89
e 85 119
e 86 93
e 87 101
e 91 95
e 91 120
e 92 113
e 93 94
e 100 116
e 101 102
e 110 115
e 110 118
